#Just a comment
units metal
dimension 3
boundary p p p
atom_style atomic
box tilt large
read_data new.data

log logfile

pair_style eam/alloy
pair_coeff * * ../Al03.eam.alloy Al 

neighbor	0.3 bin
neigh_modify	delay 10
 
thermo 50
timestep 0.001

compute pe1 all pe/atom

dump 1 all custom 100 dump.eam id x y z vx vy vz c_pe1

minimize 1.0e-25 1.0e-25 1000 1000

velocity all create 300 12345

fix 1 all nvt temp 300 300 $(100.0*dt)

thermo 50

run 15000

minimize 1.0e-25 1.0e-25 1000 1000
